NAME : E-n22-k4
COMMENT : (MyProblem, Min no of trucks: 0, Optimal value: 0)
TYPE : CVRP
DIMENSION : 7
EDGE_WEIGHT_TYPE : EUC_2D
CAPACITY : 100
NODE_COORD_SECTION
1 10 10
2 9 9
3 9 8
4 9 7
5 8 7
6 9 6
7 11 9
DEMAND_SECTION
1 0
2 11
3 70
4 80
5 14
6 23
7 87
DEPOT_SECTION
 1
 -1
EOF